c
c This is glucose 4.1 --  based on MiniSAT (Many thanks to MiniSAT team)
c
c ========================================[ Problem Statistics ]===========================================
c |                                                                                                       |
c |  Number of variables:          2380                                                                   |
c |  Number of clauses:            4260                                                                   |
c |  Parse time:                   0.00 s                                                                 |
c |                                                                                                       |
c | Preprocesing is fully done
c |  Eliminated clauses:           0.02 Mb                                                                |
c |  Simplification time:          0.00 s                                                                 |
c |                                                                                                       |
c ========================================[ MAGIC CONSTANTS ]==============================================
c | Constants are supposed to work well together :-)                                                      |
c | however, if you find better choices, please let us known...                                           |
c |-------------------------------------------------------------------------------------------------------|
c | Adapt dynamically the solver after 100000 conflicts (restarts, reduction strategies...)               |
c |-------------------------------------------------------------------------------------------------------|
c |                                |                                |                                     |
c | - Restarts:                    | - Reduce Clause DB:            | - Minimize Asserting:               |
c |   * LBD Queue    :     50      |   * First     :   2000         |    * size <  30                     |
c |   * Trail  Queue :   5000      |   * Inc       :    300         |    * lbd  <   6                     |
c |   * K            :   0.80      |   * Special   :   1000         |                                     |
c |   * R            :   1.40      |   * Protected :  (lbd)< 30     |                                     |
c |                                |                                |                                     |
c ==================================[ Search Statistics (every  10000 conflicts) ]=========================
c |                                                                                                       |
c |          RESTARTS           |          ORIGINAL         |              LEARNT              | Progress |
c |       NB   Blocked  Avg Cfc |    Vars  Clauses Literals |   Red   Learnts    LBD2  Removed |          |
c =========================================================================================================
c |        4         0     2500 |     243     1059     3222 |     2     6203       42     3796 |  0.000 % |
c |        6       155     3333 |     243     1059     3222 |     3    11199       62     8800 |  0.000 % |
c |        9       299     3333 |     243     1059     3222 |     4    13800       73    16199 |  0.000 % |
c last restart ## conflicts  :  3814 47 
c =========================================================================================================
c restarts              : 9 (3628 conflicts in avg)
c blocked restarts      : 338 (multiple: 5) 
c last block at restart : 9
c nb ReduceDB           : 4
c nb removed Clauses    : 16199
c nb learnts DL2        : 80
c nb learnts size 2     : 1
c nb learnts size 1     : 0
c conflicts             : 32653          (33184 /sec)
c decisions             : 38018          (0.00 % random) (38636 /sec)
c propagations          : 1387316        (1409874 /sec)
c nb reduced Clauses    : 0
c CPU time              : 0.984 s

s SATISFIABLE
